c SAT Generator for power-law distributed variable frequencies
c -g u -v 20 -c 91 -k 3 -p 2.750000 -b 3.200000 -f /home/schmidt/Devel/ni-kop-sat/data/ensemble/ruf20-91/ruf20-91-247 -u 1 -U 1 -s 121680124
p cnf 20 91
3 8 19 0
14 -15 18 0
3 12 20 0
4 -8 11 0
-5 10 16 0
-3 -6 17 0
10 -16 19 0
4 -8 9 0
4 -8 12 0
1 9 -11 0
-12 -14 -16 0
-4 9 11 0
11 -12 15 0
4 5 -9 0
-4 15 19 0
7 -9 14 0
-4 5 15 0
10 12 14 0
-2 12 14 0
5 -12 16 0
2 -8 14 0
2 10 14 0
6 -13 17 0
1 -11 -18 0
-7 10 15 0
9 -11 -15 0
-5 -10 -11 0
-9 15 19 0
2 -15 -17 0
-2 10 -14 0
2 8 11 0
2 -10 -20 0
-11 -15 16 0
-10 -13 20 0
4 12 -13 0
-8 10 17 0
-1 -7 9 0
1 3 -6 0
-3 11 16 0
6 -10 19 0
9 -17 -20 0
2 6 -9 0
6 12 14 0
-6 13 20 0
-1 -15 19 0
1 -5 -13 0
2 12 -13 0
16 18 -20 0
-1 -10 13 0
3 -13 -20 0
10 -16 20 0
9 14 20 0
14 15 19 0
-9 -14 -19 0
2 11 17 0
1 6 -14 0
-1 -6 -13 0
-9 -11 15 0
11 -14 16 0
4 5 20 0
6 11 -13 0
1 -14 -15 0
-10 -13 -15 0
10 13 16 0
2 7 16 0
3 7 20 0
8 -14 -17 0
-16 17 18 0
7 -11 15 0
-2 -12 -17 0
-5 -7 -18 0
-3 6 16 0
-13 16 17 0
-7 8 -14 0
6 -8 -12 0
4 9 -17 0
-4 11 15 0
9 -13 14 0
8 10 -14 0
-1 -8 17 0
-4 15 17 0
-3 -5 -17 0
-6 -13 17 0
1 8 9 0
5 -13 -17 0
-11 18 -19 0
3 -16 -18 0
2 -10 20 0
-6 7 20 0
-7 -13 -16 0
4 14 17 0
